200
0 52 110 11 146 39 131 84 144 190 26 197 122 14 12 78 159 161 63 19 54 41 134 185 126 111 119 46 30 66 176 64 76 157 192 127 166 29 67 168 34 1 180 124 160 79 150 186 156 106 108 5 53 74 154 182 21 133 7 16 24 142 89 33 102 145 128 113 97 57 140 170 199 87 147 27 38 37 70 129 71 82 61 184 167 172 22 149 90 93 94 49 138 85 195 55 151 177 4 104 42 136 132 175 112 194 181 75 69 143 101 163 139 20 153 88 40 58 2 72 188 68 141 130 179 155 32 99 73 56 35 196 44 80 96 103 164 165 95 125 86 51 10 83 47 169 121 115 43 187 193 50 62 15 178 152 65 118 18 98 91 9 174 13 191 107 59 100 3 162 92 105 148 189 48 17 109 28 183 36 117 123 137 8 77 81 6 198 25 60 135 31 23 171 45 120 173 158 116 114 
